&input
    fildyn = 'csi.dyn'
    zasr = 'simple'
    loto_2d = .false.
    write_lr = .true.
    flfrc = 'csi.fc'
/
