&input
    fildyn = 'csi.dyn'
    zasr = 'crystal'
    flfrc = 'csi.fc'
/
