&bands
    outdir = './outdir'
    prefix = 'csi'
    filband = 'csi.bands.data'
/
